computational_data/solutions/Reg3_n40_s8.sol
Optimal - objective value 18.00000000
      6 r_6                         1                       1
      8 r_8                         1                       1
     16 r_16                        1                       1
     26 r_26                        1                       1
     30 r_30                        1                       1
     32 r_32                        1                       1
     36 r_36                        1                       1
     38 r_38                        1                       1
     39 r_39                        1                       1
     42 b_2                         1                       1
     57 b_17                        1                       1
     58 b_18                        1                       1
     59 b_19                        1                       1
     60 b_20                        1                       1
     61 b_21                        1                       1
     67 b_27                        1                       1
     68 b_28                        1                       1
     74 b_34                        1                       1
